148 147 176 126 167 137 86 107 23 142 178 104 151 131 73 84 56 160 45 11 42 174 129 192 156 130 88 30 33 2 44 8 121 13 49 38 9 162 4 25 116 80 170 165 17 124 181 32 187 3 150 57 19 145 10 177 43 119 6 36 153 180 134 154 158 35 164 166 114 67 186 89 18 102 24 136 72 41 69 159 173 128 58 68 161 168 15 31 93 76 109 105 97 1 149 52 74 169 91 197 182 66 125 28 123 98 171 195 63 191 103 183 132 83 64 111 16 48 14 115 108 81 110 172 152 194 60 199 163 78 196 90 27 87 46 112 20 184 82 92 51 85 75 198 106 12 5 144 37 53 50 185 7 40 193 189 188 120 54 138 70 77 140 71 26 133 47 21 95 175 117 135 62 39 0 29 55 127 143 139 118 122 146 190 100 79 65 99 155 157 34 113 59 94 61 22 101 96 179 141 

